
Gurobi 10.0.0 (win64) logging started Mon Apr 15 10:47:40 2024

Set parameter LogFile to value "C:\Users\ealvarezq\Documents\GitHub\Comillas\Models\JointResearch\05. Models\06.Benchmarking\B.Operation_cost\IEEE118_mod1_ByStages_nc150/openStarNet_IEEE118_mod1_ByStages_nc150.log"
Set parameter Method to value 2
Set parameter MIPFocus to value 1
Set parameter Presolve to value 2
Set parameter RINS to value 100
Set parameter MIPGap to value 0.01
Set parameter Threads to value 9
Set parameter TimeLimit to value 259200
Set parameter IterationLimit to value 760000000
Gurobi Optimizer version 10.0.0 build v10.0.0rc2 (win64)

CPU model: Intel(R) Core(TM) i7-8700 CPU @ 3.20GHz, instruction set [SSE2|AVX|AVX2]
Thread count: 6 physical cores, 12 logical processors, using up to 9 threads

Optimize a model with 213154 rows, 156728 columns and 547463 nonzeros
Model fingerprint: 0x5625959f
Variable types: 156694 continuous, 34 integer (34 binary)
Coefficient statistics:
  Matrix range     [3e-04, 9e+03]
  Objective range  [1e+00, 1e+00]
  Bounds range     [1e-04, 3e+00]
  RHS range        [2e-04, 3e+00]
Presolve removed 144144 rows and 71889 columns
Presolve time: 0.94s
Presolved: 69010 rows, 84839 columns, 252309 nonzeros
Variable types: 84805 continuous, 34 integer (34 binary)
Root relaxation presolved: 69010 rows, 84839 columns, 252309 nonzeros

Root barrier log...

Ordering time: 0.02s

Barrier statistics:
 Dense cols : 34
 AA' NZ     : 3.124e+05
 Factor NZ  : 1.236e+06 (roughly 70 MB of memory)
 Factor Ops : 2.726e+07 (less than 1 second per iteration)
 Threads    : 8

                  Objective                Residual
Iter       Primal          Dual         Primal    Dual     Compl     Time
   0   8.81355097e+06 -1.23712494e+09  1.54e+01 1.42e+03  2.67e+04     1s
   1   2.13766636e+06 -4.72983987e+08  3.41e+00 2.45e-08  5.52e+03     1s
   2   5.77886114e+05 -1.38419426e+08  6.23e-01 5.02e-08  1.04e+03     2s
   3   3.31706153e+05 -4.70481522e+07  1.49e-01 1.49e-08  2.77e+02     2s
   4   2.31631654e+05 -5.00688289e+06  1.55e-02 7.08e-10  2.68e+01     2s
   5   1.32422500e+05 -1.42063417e+06  3.56e-03 6.78e-10  7.71e+00     2s
   6   6.99385501e+04 -8.81211520e+05  1.58e-03 4.17e-10  4.69e+00     2s
   7   3.48266457e+04 -2.01417597e+05  5.32e-04 6.91e-11  1.16e+00     2s
   8   1.57503147e+04 -7.25229815e+04  1.64e-04 2.18e-11  4.34e-01     2s
   9   8.27660497e+03 -4.53638078e+04  6.16e-05 1.27e-11  2.64e-01     2s
  10   4.80590388e+03 -1.23082032e+04  2.50e-05 3.33e-12  8.41e-02     2s
  11   2.86185992e+03 -3.52885865e+03  8.92e-06 4.76e-12  3.14e-02     2s
  12   2.25688923e+03 -9.48214501e+02  5.27e-06 1.86e-11  1.57e-02     2s
  13   1.78920717e+03 -2.81218655e+02  2.83e-06 9.12e-12  1.02e-02     2s
  14   1.59669521e+03  1.60688867e+02  1.89e-06 2.26e-12  7.05e-03     2s
  15   1.48741943e+03  4.89284752e+02  1.39e-06 7.61e-12  4.90e-03     2s
  16   1.45101431e+03  6.74336747e+02  1.23e-06 6.93e-12  3.81e-03     2s
  17   1.35296307e+03  8.77688948e+02  8.19e-07 3.49e-12  2.33e-03     2s
  18   1.29348993e+03  1.00512793e+03  5.77e-07 5.65e-12  1.42e-03     2s
  19   1.23444296e+03  1.05177257e+03  3.40e-07 4.48e-12  8.97e-04     2s
  20   1.20473587e+03  1.06961657e+03  2.23e-07 5.15e-12  6.64e-04     2s
  21   1.19127078e+03  1.08257451e+03  1.71e-07 4.66e-12  5.34e-04     2s
  22   1.18413336e+03  1.09997465e+03  1.43e-07 1.16e-11  4.13e-04     2s
  23   1.16970372e+03  1.11696026e+03  8.84e-08 1.50e-11  2.59e-04     2s
  24   1.16182705e+03  1.12857072e+03  5.89e-08 1.03e-11  1.63e-04     2s
  25   1.15721146e+03  1.13265086e+03  4.20e-08 1.23e-11  1.21e-04     2s
  26   1.15557434e+03  1.13616217e+03  3.59e-08 1.31e-11  9.54e-05     2s
  27   1.15158600e+03  1.14026020e+03  2.16e-08 3.48e-12  5.56e-05     2s
  28   1.14817502e+03  1.14233891e+03  9.57e-09 6.52e-12  2.87e-05     2s
  29   1.14711348e+03  1.14350128e+03  5.91e-09 5.85e-12  1.77e-05     2s
  30   1.14601191e+03  1.14454829e+03  2.10e-09 3.41e-12  7.19e-06     3s
  31   1.14552999e+03  1.14511470e+03  5.50e-10 4.92e-12  2.04e-06     3s
  32   1.14539532e+03  1.14526702e+03  1.56e-10 7.52e-12  6.30e-07     3s
  33   1.14536234e+03  1.14530860e+03  4.82e-10 3.33e-12  2.64e-07     3s
  34   1.14534705e+03  1.14533108e+03  6.33e-10 5.40e-12  7.84e-08     3s
  35   1.14534141e+03  1.14533812e+03  4.89e-10 4.12e-12  1.62e-08     3s
  36   1.14533982e+03  1.14533871e+03  1.65e-10 2.95e-12  5.45e-09     3s
  37   1.14533924e+03  1.14533917e+03  2.84e-10 5.24e-12  3.44e-10     3s
  38   1.14533920e+03  1.14533920e+03  6.07e-11 6.13e-12  2.85e-11     3s

Barrier solved model in 38 iterations and 2.84 seconds (3.00 work units)
Optimal objective 1.14533920e+03


Root relaxation: objective 1.145339e+03, 6076 iterations, 2.93 seconds (3.58 work units)

    Nodes    |    Current Node    |     Objective Bounds      |     Work
 Expl Unexpl |  Obj  Depth IntInf | Incumbent    BestBd   Gap | It/Node Time

     0     0 1145.33920    0   24          - 1145.33920      -     -    4s
H    0     0                    8636.6014361 1145.33920  86.7%     -   10s
H    0     0                    3380.3991555 1145.33920  66.1%     -   19s
H    0     0                    1419.1376670 1167.84483  17.7%     -   30s
     0     0 1167.84483    0   25 1419.13767 1167.84483  17.7%     -   30s
     0     0 1168.08355    0   25 1419.13767 1168.08355  17.7%     -   31s
     0     0 1171.58904    0   24 1419.13767 1171.58904  17.4%     -   35s
H    0     0                    1398.5495136 1171.58904  16.2%     -   38s
     0     0 1171.62629    0   24 1398.54951 1171.62629  16.2%     -   39s
     0     0 1171.62679    0   24 1398.54951 1171.62679  16.2%     -   39s
     0     0 1174.06404    0   23 1398.54951 1174.06404  16.1%     -   43s
     0     0 1174.07302    0   23 1398.54951 1174.07302  16.1%     -   47s
     0     0 1174.07417    0   23 1398.54951 1174.07417  16.1%     -   48s
     0     0 1174.28575    0   23 1398.54951 1174.28575  16.0%     -   49s
     0     0 1174.28575    0   23 1398.54951 1174.28575  16.0%     -   50s
     0     0 1174.39941    0   23 1398.54951 1174.39941  16.0%     -   53s
H    0     0                    1313.1444198 1174.39941  10.6%     -  567s
     0     2 1174.39941    0   23 1313.14442 1174.39941  10.6%     -  568s
     1     4 1220.51245    1   22 1313.14442 1174.70747  10.5%  7240  575s
     3     8 1256.34182    2   22 1313.14442 1194.09712  9.07%  4482  586s
     7    10     cutoff    3      1313.14442 1203.99233  8.31%  4751  604s
    15    19 1216.82208    4   20 1313.14442 1210.66061  7.80%  3906  635s
    24    24 1226.51904    5   19 1313.14442 1217.36234  7.29%  4321  659s
    33    31 1226.96530    6   18 1313.14442 1217.36234  7.29%  4087  665s
    42    38 1251.33421    7   15 1313.14442 1217.36234  7.29%  3563  680s
    51    42 1261.23087    8   15 1313.14442 1217.36234  7.29%  3396  701s
    61    43 1268.52178    9   14 1313.14442 1217.36234  7.29%  3255  720s
    70    48 1281.27777   10   13 1313.14442 1217.36234  7.29%  3328  742s
    81    55 1295.20845   11   12 1313.14442 1217.36234  7.29%  3318  770s
    90    64 1299.47139   12   11 1313.14442 1217.36234  7.29%  3297  779s
   111    72     cutoff   15      1313.14442 1217.36234  7.29%  2852  798s
   134    72     cutoff   16      1313.14442 1226.58279  6.59%  2610  812s
   154    68 1238.96962    6   19 1313.14442 1226.58279  6.59%  2453  834s
   176    81     cutoff    8      1313.14442 1226.58279  6.59%  2468  852s
   201    91     cutoff    7      1313.14442 1226.58279  6.59%  2330  868s
*  231    91              26    1311.3806717 1226.58279  6.47%  2124  868s
   233    87 1270.49790    6   19 1311.38067 1226.58279  6.47%  2121  885s
   264   103 1277.57480    7   17 1311.38067 1226.58279  6.47%  1994  896s
   297   105 1304.33777    9   14 1311.38067 1226.58279  6.47%  1868  983s
H  314   105                    1309.0180691 1226.58279  6.30%  1876  983s
   336    99 1290.43680    8   16 1309.01807 1226.58279  6.30%  1798 1014s
   365    99 1299.10969    9   16 1309.01807 1246.91673  4.74%  1839 1046s
   407    98 1296.48312   12    9 1309.01807 1266.69725  3.23%  1819 1064s
   462    89 1296.52273    7   18 1309.01807 1266.69725  3.23%  1694 1097s
   490    81     cutoff    7      1309.01807 1266.69725  3.23%  1764 1249s
   526    75 1300.02054   13   11 1309.01807 1270.51193  2.94%  1768 1278s
   569    63 1303.04038   11   10 1309.01807 1280.49574  2.18%  1738 1308s
   644    41 1307.43028   14   10 1309.01807 1287.97871  1.61%  1646 1339s
   710     7 1303.46079   14    9 1309.01807 1292.96626  1.23%  1599 1355s

Cutting planes:
  Gomory: 1
  Implied bound: 432
  MIR: 673
  Flow cover: 16
  RLT: 1
  Relax-and-lift: 1

Explored 798 nodes (1201265 simplex iterations) in 1355.46 seconds (2837.80 work units)
Thread count was 9 (of 12 available processors)

Solution count 7: 1309.02 1311.38 1313.14 ... 8636.6

Optimal solution found (tolerance 1.00e-02)
Best objective 1.309018069100e+03, best bound 1.298333672468e+03, gap 0.8162%

Gurobi 10.0.0 (win64) logging started Mon Apr 15 11:10:25 2024

Set parameter LogFile to value "C:\Users\ealvarezq\Documents\GitHub\Comillas\Models\JointResearch\05. Models\06.Benchmarking\B.Operation_cost\IEEE118_mod1_ByStages_nc150/openStarNet_IEEE118_mod1_ByStages_nc150.log"
Set parameter Method to value 2
Set parameter MIPFocus to value 1
Set parameter Presolve to value 2
Set parameter RINS to value 100
Set parameter MIPGap to value 0.01
Set parameter Threads to value 9
Set parameter TimeLimit to value 259200
Set parameter IterationLimit to value 760000000
Gurobi Optimizer version 10.0.0 build v10.0.0rc2 (win64)

CPU model: Intel(R) Core(TM) i7-8700 CPU @ 3.20GHz, instruction set [SSE2|AVX|AVX2]
Thread count: 6 physical cores, 12 logical processors, using up to 9 threads

Optimize a model with 213154 rows, 156694 columns and 527029 nonzeros
Model fingerprint: 0xa1f24b65
Coefficient statistics:
  Matrix range     [3e-04, 9e+03]
  Objective range  [1e+00, 1e+00]
  Bounds range     [1e-04, 3e+00]
  RHS range        [2e-04, 3e+02]
Presolve removed 158650 rows and 67925 columns
Presolve time: 0.29s
Presolved: 54504 rows, 88934 columns, 212915 nonzeros

Ordering time: 0.01s

Barrier statistics:
 AA' NZ     : 1.798e+05
 Factor NZ  : 7.164e+05 (roughly 60 MB of memory)
 Factor Ops : 1.034e+07 (less than 1 second per iteration)
 Threads    : 9

                  Objective                Residual
Iter       Primal          Dual         Primal    Dual     Compl     Time
   0   1.55584051e+07 -7.38591700e+08  9.85e+01 1.14e+02  1.53e+04     0s
   1   2.05302976e+06 -2.25612292e+08  1.15e+01 1.36e-12  2.19e+03     0s
   2   4.37159404e+05 -4.32034965e+07  1.50e+00 1.36e-12  3.10e+02     0s
   3   2.09558793e+05 -5.36612485e+06  5.10e-02 1.14e-12  3.00e+01     0s
   4   1.16085846e+05 -8.61869235e+05  8.08e-03 9.09e-13  5.08e+00     0s
   5   5.61585500e+04 -2.91571889e+05  2.93e-03 3.69e-13  1.80e+00     0s
   6   2.64601296e+04 -1.13422095e+05  1.06e-03 3.01e-13  7.21e-01     1s
   7   1.27821185e+04 -5.13374006e+04  3.82e-04 2.45e-13  3.30e-01     1s
   8   5.68673830e+03 -1.31871298e+04  9.94e-05 2.58e-13  9.72e-02     1s
   9   4.21779400e+03 -5.70742544e+03  6.02e-05 2.10e-13  5.11e-02     1s
  10   3.05848477e+03 -2.92364979e+03  3.32e-05 2.85e-13  3.08e-02     1s
  11   2.54244138e+03 -9.25649156e+02  2.21e-05 2.31e-13  1.79e-02     1s
  12   2.02262403e+03 -8.33727404e-01  1.18e-05 3.59e-13  1.04e-02     1s
  13   1.75357348e+03  5.33870223e+02  6.93e-06 3.11e-13  6.28e-03     1s
  14   1.57248833e+03  8.70782497e+02  3.89e-06 3.55e-13  3.61e-03     1s
  15   1.45519653e+03  1.12276787e+03  2.05e-06 3.78e-13  1.71e-03     1s
  16   1.38541907e+03  1.21092274e+03  1.03e-06 2.71e-13  8.98e-04     1s
  17   1.36339113e+03  1.26020165e+03  7.23e-07 3.49e-13  5.31e-04     1s
  18   1.34416196e+03  1.27859808e+03  4.64e-07 2.82e-13  3.37e-04     1s
  19   1.33449585e+03  1.29106451e+03  3.35e-07 2.87e-13  2.24e-04     1s
  20   1.32294633e+03  1.29943048e+03  1.82e-07 2.45e-13  1.21e-04     1s
  21   1.31588207e+03  1.30306576e+03  8.81e-08 2.17e-13  6.60e-05     1s
  22   1.31131232e+03  1.30679541e+03  2.94e-08 2.45e-13  2.32e-05     1s
  23   1.30985432e+03  1.30837411e+03  1.01e-08 2.52e-13  7.62e-06     1s
  24   1.30925128e+03  1.30887824e+03  2.70e-09 3.89e-13  1.92e-06     1s
  25   1.30904727e+03  1.30898705e+03  3.22e-10 4.44e-13  3.10e-07     1s
  26   1.30901986e+03  1.30901444e+03  3.24e-10 2.62e-13  2.79e-08     1s
  27   1.30901858e+03  1.30901772e+03  5.33e-10 2.58e-13  4.45e-09     1s
  28   1.30901808e+03  1.30901806e+03  4.72e-10 4.77e-13  1.07e-10     1s
  29   1.30901807e+03  1.30901807e+03  3.29e-11 3.05e-13  1.92e-14     1s

Barrier solved model in 29 iterations and 1.10 seconds (1.08 work units)
Optimal objective 1.30901807e+03

Crossover log...

   15618 DPushes remaining with DInf 0.0000000e+00                 1s
       0 DPushes remaining with DInf 0.0000000e+00                 1s

     419 PPushes remaining with PInf 0.0000000e+00                 1s
       0 PPushes remaining with PInf 0.0000000e+00                 1s

  Push phase complete: Pinf 0.0000000e+00, Dinf 3.5995168e-12      1s

Iteration    Objective       Primal Inf.    Dual Inf.      Time
    5223    1.3090181e+03   0.000000e+00   0.000000e+00      2s

Solved in 5223 iterations and 1.52 seconds (1.43 work units)
Optimal objective  1.309018069e+03

Gurobi 11.0.0 (linux64) logging started Wed Aug  7 01:30:06 2024

Set parameter LogFile to value "/lustre1/scratch/348/vsc34888/JointResearch/05.Models/06.Benchmarking/B.Operation_cost/IEEE118_mod1_ByStages_nc150/openStarNet_IEEE118_mod1_ByStages_nc150.log"
Set parameter Method to value 2
Set parameter MIPFocus to value 1
Set parameter Presolve to value 2
Set parameter RINS to value 100
Set parameter MIPGap to value 0.01
Set parameter Threads to value 36
Set parameter TimeLimit to value 259200
Set parameter IterationLimit to value 760000000
Gurobi Optimizer version 11.0.0 build v11.0.0rc2 (linux64 - "Rocky Linux 8.9 (Green Obsidian)")

CPU model: Intel(R) Xeon(R) Gold 6240 CPU @ 2.60GHz, instruction set [SSE2|AVX|AVX2|AVX512]
Thread count: 36 physical cores, 36 logical processors, using up to 36 threads

Optimize a model with 213153 rows, 156694 columns and 527028 nonzeros
Model fingerprint: 0x0d1ce065
Coefficient statistics:
  Matrix range     [3e-04, 9e+03]
  Objective range  [1e+00, 1e+00]
  Bounds range     [1e-04, 3e+00]
  RHS range        [2e-04, 3e+00]
Presolve removed 161388 rows and 73068 columns
Presolve time: 0.31s
Presolved: 51765 rows, 86008 columns, 204488 nonzeros

Ordering time: 0.01s

Barrier statistics:
 AA' NZ     : 1.769e+05
 Factor NZ  : 6.905e+05 (roughly 60 MB of memory)
 Factor Ops : 1.021e+07 (less than 1 second per iteration)
 Threads    : 36

                  Objective                Residual
Iter       Primal          Dual         Primal    Dual     Compl     Time
   0   1.43134483e+07 -5.80055294e+08  8.29e+01 4.55e+01  1.46e+04     0s
   1   1.87284651e+06 -1.92389836e+08  9.45e+00 1.59e-12  2.04e+03     0s
   2   4.63689968e+05 -4.60381208e+07  1.34e+00 1.31e-12  3.44e+02     0s
   3   2.29962444e+05 -6.32404433e+06  3.59e-02 1.19e-12  3.58e+01     0s
   4   1.41010709e+05 -9.65200232e+05  1.66e-03 6.37e-12  5.88e+00     1s
   5   8.28190203e+04 -3.50240661e+05  6.77e-04 1.93e-12  2.30e+00     1s
   6   5.51311070e+04 -1.55279301e+05  3.56e-04 9.09e-13  1.12e+00     1s
   7   3.86053713e+04 -7.74820208e+04  1.92e-04 5.12e-13  6.16e-01     1s
   8   2.87892438e+04 -2.83134579e+04  1.02e-04 2.27e-13  3.03e-01     1s
   9   2.43292493e+04 -7.31532951e+03  6.52e-05 4.55e-13  1.68e-01     1s
  10   2.11848796e+04  1.05639884e+03  4.16e-05 2.27e-13  1.07e-01     1s
  11   1.82155731e+04  8.47238606e+03  2.01e-05 2.27e-13  5.17e-02     1s
  12   1.65759214e+04  1.23060679e+04  9.31e-06 2.27e-13  2.27e-02     1s
  13   1.59884845e+04  1.34706443e+04  5.89e-06 2.27e-13  1.34e-02     1s
  14   1.55385144e+04  1.39877634e+04  3.39e-06 2.27e-13  8.23e-03     1s
  15   1.52647340e+04  1.43622804e+04  1.95e-06 2.27e-13  4.79e-03     1s
  16   1.51385351e+04  1.45991711e+04  1.32e-06 4.55e-13  2.86e-03     1s
  17   1.50086553e+04  1.46754473e+04  6.91e-07 2.27e-13  1.77e-03     1s
  18   1.49377947e+04  1.47843847e+04  3.53e-07 4.55e-13  8.14e-04     1s
  19   1.49012060e+04  1.48239552e+04  1.90e-07 4.55e-13  4.10e-04     1s
  20   1.48757187e+04  1.48372443e+04  7.83e-08 2.27e-13  2.04e-04     1s
  21   1.48645812e+04  1.48459262e+04  3.01e-08 2.27e-13  9.90e-05     1s
  22   1.48600416e+04  1.48527313e+04  1.18e-08 2.27e-13  3.88e-05     1s
  23   1.48572900e+04  1.48563099e+04  1.43e-09 4.55e-13  5.20e-06     1s
  24   1.48569001e+04  1.48568057e+04  2.25e-09 3.41e-13  5.01e-07     1s
  25   1.48568579e+04  1.48568377e+04  6.24e-10 4.55e-13  1.07e-07     1s
  26   1.48568497e+04  1.48568459e+04  6.02e-10 2.27e-13  2.05e-08     1s
  27   1.48568470e+04  1.48568468e+04  8.87e-10 4.55e-13  1.33e-09     1s
  28   1.48568468e+04  1.48568468e+04  9.83e-11 2.27e-13  6.76e-11     1s

Barrier solved model in 28 iterations and 0.99 seconds (0.99 work units)
Optimal objective 1.48568468e+04

Crossover log...

   15069 DPushes remaining with DInf 0.0000000e+00                 1s
       0 DPushes remaining with DInf 0.0000000e+00                 1s

    1094 PPushes remaining with PInf 0.0000000e+00                 1s
       0 PPushes remaining with PInf 0.0000000e+00                 1s

  Push phase complete: Pinf 0.0000000e+00, Dinf 3.4431855e-11      1s

Extra simplex iterations after uncrush: 1
Iteration    Objective       Primal Inf.    Dual Inf.      Time
    5596    1.4856847e+04   0.000000e+00   0.000000e+00      1s

Solved in 5596 iterations and 1.50 seconds (1.28 work units)
Optimal objective  1.485684681e+04

Gurobi 11.0.0 (linux64) logging started Wed Aug  7 01:30:51 2024

Set parameter LogFile to value "/lustre1/scratch/348/vsc34888/JointResearch/05.Models/06.Benchmarking/B.Operation_cost/IEEE118_mod1_ByStages_nc150/openStarNet_IEEE118_mod1_ByStages_nc150.log"
Set parameter Method to value 2
Set parameter MIPFocus to value 1
Set parameter Presolve to value 2
Set parameter RINS to value 100
Set parameter MIPGap to value 0.01
Set parameter Threads to value 36
Set parameter TimeLimit to value 259200
Set parameter IterationLimit to value 760000000
Gurobi Optimizer version 11.0.0 build v11.0.0rc2 (linux64 - "Rocky Linux 8.9 (Green Obsidian)")

CPU model: Intel(R) Xeon(R) Gold 6240 CPU @ 2.60GHz, instruction set [SSE2|AVX|AVX2|AVX512]
Thread count: 36 physical cores, 36 logical processors, using up to 36 threads

Optimize a model with 213153 rows, 156694 columns and 527028 nonzeros
Model fingerprint: 0x0d1ce065
Coefficient statistics:
  Matrix range     [3e-04, 9e+03]
  Objective range  [1e+00, 1e+00]
  Bounds range     [1e-04, 3e+00]
  RHS range        [2e-04, 3e+00]
Presolve removed 161388 rows and 73068 columns
Presolve time: 0.31s
Presolved: 51765 rows, 86008 columns, 204488 nonzeros

Ordering time: 0.01s

Barrier statistics:
 AA' NZ     : 1.769e+05
 Factor NZ  : 6.905e+05 (roughly 60 MB of memory)
 Factor Ops : 1.021e+07 (less than 1 second per iteration)
 Threads    : 36

                  Objective                Residual
Iter       Primal          Dual         Primal    Dual     Compl     Time
   0   1.43134483e+07 -5.80055294e+08  8.29e+01 4.55e+01  1.46e+04     0s
   1   1.87284651e+06 -1.92389836e+08  9.45e+00 1.59e-12  2.04e+03     0s
   2   4.63689968e+05 -4.60381208e+07  1.34e+00 1.31e-12  3.44e+02     0s
   3   2.29962444e+05 -6.32404433e+06  3.59e-02 1.19e-12  3.58e+01     0s
   4   1.41010709e+05 -9.65200232e+05  1.66e-03 6.37e-12  5.88e+00     1s
   5   8.28190203e+04 -3.50240661e+05  6.77e-04 1.93e-12  2.30e+00     1s
   6   5.51311070e+04 -1.55279301e+05  3.56e-04 9.09e-13  1.12e+00     1s
   7   3.86053713e+04 -7.74820208e+04  1.92e-04 5.12e-13  6.16e-01     1s
   8   2.87892438e+04 -2.83134579e+04  1.02e-04 2.27e-13  3.03e-01     1s
   9   2.43292493e+04 -7.31532951e+03  6.52e-05 4.55e-13  1.68e-01     1s
  10   2.11848796e+04  1.05639884e+03  4.16e-05 2.27e-13  1.07e-01     1s
  11   1.82155731e+04  8.47238606e+03  2.01e-05 2.27e-13  5.17e-02     1s
  12   1.65759214e+04  1.23060679e+04  9.31e-06 2.27e-13  2.27e-02     1s
  13   1.59884845e+04  1.34706443e+04  5.89e-06 2.27e-13  1.34e-02     1s
  14   1.55385144e+04  1.39877634e+04  3.39e-06 2.27e-13  8.23e-03     1s
  15   1.52647340e+04  1.43622804e+04  1.95e-06 2.27e-13  4.79e-03     1s
  16   1.51385351e+04  1.45991711e+04  1.32e-06 4.55e-13  2.86e-03     1s
  17   1.50086553e+04  1.46754473e+04  6.91e-07 2.27e-13  1.77e-03     1s
  18   1.49377947e+04  1.47843847e+04  3.53e-07 4.55e-13  8.14e-04     1s
  19   1.49012060e+04  1.48239552e+04  1.90e-07 4.55e-13  4.10e-04     1s
  20   1.48757187e+04  1.48372443e+04  7.83e-08 2.27e-13  2.04e-04     1s
  21   1.48645812e+04  1.48459262e+04  3.01e-08 2.27e-13  9.90e-05     1s
  22   1.48600416e+04  1.48527313e+04  1.18e-08 2.27e-13  3.88e-05     1s
  23   1.48572900e+04  1.48563099e+04  1.43e-09 4.55e-13  5.20e-06     1s
  24   1.48569001e+04  1.48568057e+04  2.25e-09 3.41e-13  5.01e-07     1s
  25   1.48568579e+04  1.48568377e+04  6.24e-10 4.55e-13  1.07e-07     1s
  26   1.48568497e+04  1.48568459e+04  6.02e-10 2.27e-13  2.05e-08     1s
  27   1.48568470e+04  1.48568468e+04  8.87e-10 4.55e-13  1.33e-09     1s
  28   1.48568468e+04  1.48568468e+04  9.83e-11 2.27e-13  6.76e-11     1s

Barrier solved model in 28 iterations and 0.98 seconds (0.99 work units)
Optimal objective 1.48568468e+04

Crossover log...

   15069 DPushes remaining with DInf 0.0000000e+00                 1s
       0 DPushes remaining with DInf 0.0000000e+00                 1s

    1094 PPushes remaining with PInf 0.0000000e+00                 1s
       0 PPushes remaining with PInf 0.0000000e+00                 1s

  Push phase complete: Pinf 0.0000000e+00, Dinf 3.4431855e-11      1s

Extra simplex iterations after uncrush: 1
Iteration    Objective       Primal Inf.    Dual Inf.      Time
    5596    1.4856847e+04   0.000000e+00   0.000000e+00      1s

Solved in 5596 iterations and 1.48 seconds (1.28 work units)
Optimal objective  1.485684681e+04

Gurobi 11.0.3 (win64) logging started Thu Sep 19 15:06:37 2024

Set parameter LogFile to value "C:\Users\ealvarezq\Desktop\B.Operation_cost\IEEE118_mod1_ByStages_nc150/openStarNet_IEEE118_mod1_ByStages_nc150.log"
Set parameter Method to value 2
Set parameter MIPFocus to value 1
Set parameter Presolve to value 2
Set parameter RINS to value 100
Set parameter MIPGap to value 0.01
Set parameter Threads to value 24
Set parameter TimeLimit to value 259200
Set parameter IterationLimit to value 760000000
Gurobi Optimizer version 11.0.3 build v11.0.3rc0 (win64 - Windows Server 2019.0 (17763.2))

CPU model: AMD Ryzen Threadripper PRO 3955WX 16-Cores, instruction set [SSE2|AVX|AVX2]
Thread count: 16 physical cores, 32 logical processors, using up to 24 threads

Optimize a model with 213153 rows, 156552 columns and 547110 nonzeros
Model fingerprint: 0xa9d8c3b2
Variable types: 156518 continuous, 34 integer (34 binary)
Coefficient statistics:
  Matrix range     [3e-04, 9e+03]
  Objective range  [1e+00, 1e+00]
  Bounds range     [1e-04, 3e+00]
  RHS range        [2e-04, 3e+00]
Presolve removed 144179 rows and 71827 columns
Presolve time: 1.61s
Presolved: 68974 rows, 84725 columns, 252113 nonzeros
Variable types: 84691 continuous, 34 integer (34 binary)
Root relaxation presolved: 68974 rows, 84725 columns, 252113 nonzeros

Root barrier log...

Ordering time: 0.04s

Barrier statistics:
 Dense cols : 34
 AA' NZ     : 3.124e+05
 Factor NZ  : 1.236e+06 (roughly 70 MB of memory)
 Factor Ops : 2.725e+07 (less than 1 second per iteration)
 Threads    : 23

                  Objective                Residual
Iter       Primal          Dual         Primal    Dual     Compl     Time
   0   8.96974661e+06 -1.42230197e+09  1.56e+01 1.27e+03  3.11e+04     3s
   1   2.17993023e+06 -5.49077916e+08  3.48e+00 4.10e-08  6.48e+03     3s
   2   5.91068462e+05 -1.51648222e+08  6.56e-01 3.70e-08  1.18e+03     3s
   3   3.15209787e+05 -4.33419774e+07  1.25e-01 6.84e-09  2.56e+02     4s
   4   2.28408425e+05 -5.09786831e+06  1.22e-02 8.12e-10  2.71e+01     4s
   5   1.62367652e+05 -1.47829641e+06  4.12e-03 2.17e-10  8.16e+00     4s
   6   1.05625073e+05 -5.59546681e+05  1.95e-03 7.57e-11  3.29e+00     4s
   7   4.51137456e+04 -1.61089998e+05  5.82e-04 1.99e-11  1.02e+00     4s
   8   1.62647576e+04 -6.50938824e+04  1.34e-04 9.09e-12  4.00e-01     4s
   9   9.16854987e+03 -3.19202362e+04  5.86e-05 4.55e-12  2.02e-01     5s
  10   5.11789244e+03 -1.52270010e+04  2.29e-05 5.00e-12  1.00e-01     5s
  11   3.90901261e+03 -9.07758136e+03  1.44e-05 5.24e-12  6.39e-02     5s
  12   2.82868691e+03 -2.61566683e+03  7.61e-06 4.33e-12  2.68e-02     5s
  13   2.25742594e+03 -1.20837562e+03  4.67e-06 6.29e-12  1.70e-02     5s
  14   1.85908826e+03 -9.40626242e+00  2.79e-06 2.60e-12  9.19e-03     5s
  15   1.49556209e+03  5.22149594e+02  1.24e-06 6.25e-12  4.79e-03     5s
  16   1.38268030e+03  8.09260841e+02  8.24e-07 1.32e-11  2.82e-03     6s
  17   1.32485457e+03  8.98556285e+02  6.16e-07 9.64e-12  2.10e-03     6s
  18   1.27234319e+03  9.27661665e+02  4.30e-07 8.47e-12  1.70e-03     6s
  19   1.23386348e+03  1.00840081e+03  2.97e-07 5.60e-12  1.11e-03     7s
  20   1.20233967e+03  1.06021450e+03  1.90e-07 5.96e-12  6.99e-04     7s
  21   1.17194741e+03  1.09778148e+03  9.01e-08 3.30e-12  3.65e-04     8s
  22   1.16141255e+03  1.12091448e+03  5.64e-08 8.32e-12  1.99e-04     8s
  23   1.15595923e+03  1.13036539e+03  3.93e-08 2.15e-12  1.26e-04     8s
  24   1.15069572e+03  1.13374087e+03  2.32e-08 5.44e-12  8.34e-05     8s
  25   1.14760253e+03  1.13622743e+03  1.38e-08 6.45e-12  5.59e-05     8s
  26   1.14511415e+03  1.14048338e+03  6.45e-09 4.97e-12  2.28e-05     8s
  27   1.14355241e+03  1.14200489e+03  1.93e-09 5.91e-12  7.61e-06     9s
  28   1.14300184e+03  1.14250677e+03  1.26e-08 4.74e-12  2.43e-06     9s
  29   1.14289949e+03  1.14270356e+03  7.42e-09 4.06e-12  9.64e-07     9s
  30   1.14286857e+03  1.14277482e+03  4.47e-09 2.95e-12  4.61e-07     9s
  31   1.14283928e+03  1.14282220e+03  9.82e-10 3.81e-12  8.40e-08     9s
  32   1.14283573e+03  1.14283072e+03  3.08e-09 2.50e-12  2.46e-08     9s
  33   1.14283417e+03  1.14283340e+03  1.11e-09 5.24e-12  3.78e-09    10s
  34   1.14283373e+03  1.14283366e+03  4.97e-10 2.89e-12  3.27e-10    10s
  35   1.14283368e+03  1.14283368e+03  1.48e-10 3.37e-12  2.18e-11    11s

Barrier solved model in 35 iterations and 10.67 seconds (2.89 work units)
Optimal objective 1.14283368e+03


Root crossover log...

   14857 DPushes remaining with DInf 0.0000000e+00                11s
       0 DPushes remaining with DInf 0.0000000e+00                12s

    1480 PPushes remaining with PInf 2.8729347e-05                12s
       0 PPushes remaining with PInf 0.0000000e+00                12s

  Push phase complete: Pinf 0.0000000e+00, Dinf 4.8082107e-06     12s


Root simplex log...

Iteration    Objective       Primal Inf.    Dual Inf.      Time
    5980    1.1428337e+03   0.000000e+00   4.808183e-06     12s
    5983    1.1428337e+03   0.000000e+00   0.000000e+00     12s
    5983    1.1428337e+03   0.000000e+00   0.000000e+00     12s

Root relaxation: objective 1.142834e+03, 5983 iterations, 10.04 seconds (2.48 work units)

    Nodes    |    Current Node    |     Objective Bounds      |     Work
 Expl Unexpl |  Obj  Depth IntInf | Incumbent    BestBd   Gap | It/Node Time

     0     0 1142.83368    0   23          - 1142.83368      -     -   13s
H    0     0                    8952.1309172 1142.83368  87.2%     -   20s
H    0     0                    3282.2937191 1142.83368  65.2%     -   28s
     0     0 1170.19903    0   23 3282.29372 1170.19903  64.3%     -   43s
H    0     0                    1381.6354685 1170.19903  15.3%     -   46s
     0     0 1170.48356    0   23 1381.63547 1170.48356  15.3%     -   47s
     0     0 1170.50236    0   23 1381.63547 1170.50236  15.3%     -   48s
     0     0 1170.52310    0   23 1381.63547 1170.52310  15.3%     -   48s
     0     0 1170.52313    0   23 1381.63547 1170.52313  15.3%     -   48s
     0     0 1171.81233    0   23 1381.63547 1171.81233  15.2%     -   51s
     0     0 1171.82056    0   23 1381.63547 1171.82056  15.2%     -   57s
     0     0 1173.99800    0   23 1381.63547 1173.99800  15.0%     -   61s
     0     0 1174.02005    0   23 1381.63547 1174.02005  15.0%     -   62s
     0     0 1174.02013    0   23 1381.63547 1174.02013  15.0%     -   62s
     0     0 1174.23717    0   22 1381.63547 1174.23717  15.0%     -   64s
     0     0 1174.23778    0   22 1381.63547 1174.23778  15.0%     -   65s
     0     0 1174.23791    0   22 1381.63547 1174.23791  15.0%     -   69s
H    0     0                    1319.9547934 1174.23791  11.0%     - 1164s
     0     2 1174.23791    0   22 1319.95479 1174.23791  11.0%     - 1168s
     1     4 1198.27365    1   21 1319.95479 1174.33766  11.0%  4713 1177s
     3     8 1223.63826    2   20 1319.95479 1198.32051  9.22%  3692 1204s
     7    10     cutoff    3      1319.95479 1206.65030  8.58%  4710 1231s
    15    14 1245.80641    4   20 1319.95479 1216.09285  7.87%  4679 1249s
    25    26 1259.02941    5   18 1319.95479 1220.78195  7.51%  4274 1256s
    39    34     cutoff    6      1319.95479 1230.72850  6.76%  3596 1282s
    63    44 1269.16515    7   15 1319.95479 1236.17953  6.35%  3133 1305s
    87    62 1278.44989    8   12 1319.95479 1236.34464  6.33%  2709 1340s
   111    76 1288.20087    9   12 1319.95479 1236.34464  6.33%  2662 1347s
   135    90 1301.73663   10   11 1319.95479 1236.34464  6.33%  2373 1396s
   161   102     cutoff   11      1319.95479 1236.34464  6.33%  2407 1443s
   191   112 1307.15526   10   11 1319.95479 1236.34464  6.33%  2392 1488s
   225   110 1315.17432   12    8 1319.95479 1236.34464  6.33%  2309 1526s
   266   106     cutoff   14      1319.95479 1236.34464  6.33%  2227 1557s
   310   103 1295.36034   13   10 1319.95479 1236.34464  6.33%  2190 1604s
   353   111 1314.74818   14    8 1319.95479 1236.34464  6.33%  2199 1653s
   406   113 1317.18575   15    7 1319.95479 1236.34464  6.33%  2090 1702s
   471   101 1304.09500   12   10 1319.95479 1236.34464  6.33%  2013 1746s
   530    92 1311.05665   13    9 1319.95479 1236.34464  6.33%  1993 1802s
   587    84     cutoff   14      1319.95479 1250.45507  5.27%  2061 1852s
   645    70 1269.24738    8   14 1319.95479 1250.45507  5.27%  2090 1908s
   713    57     cutoff    8      1319.95479 1250.45507  5.27%  2177 1963s
   790    61 1291.53047   10   10 1319.95479 1250.45507  5.27%  2153 2010s
   876    29 1316.07436   12    9 1319.95479 1269.21303  3.84%  2103 2063s
   979    23     cutoff   10      1319.95479 1275.49376  3.37%  2046 2109s
  1039    10 1307.41129   13    8 1319.95479 1282.11109  2.87%  2005 2150s
  1094     6 1301.26743   11   11 1319.95479 1282.11109  2.87%  1965 2169s
  1116     7 1312.40050   12    9 1319.95479 1292.60520  2.07%  1960 2186s
  1133     0 1307.63821   12    8 1319.95479 1303.49320  1.25%  1948 2192s

Cutting planes:
  Gomory: 1
  Implied bound: 440
  MIR: 700
  Flow cover: 27
  Relax-and-lift: 13

Explored 1158 nodes (2233409 simplex iterations) in 2192.81 seconds (1767.66 work units)
Thread count was 24 (of 32 available processors)

Solution count 4: 1319.95 1381.64 3282.29 8952.13 

Optimal solution found (tolerance 1.00e-02)
Best objective 1.319954793419e+03, best bound 1.319954793419e+03, gap 0.0000%

Gurobi 11.0.3 (win64) logging started Thu Sep 19 15:46:12 2024

Set parameter LogFile to value "C:\Users\ealvarezq\Desktop\B.Operation_cost\IEEE118_mod1_ByStages_nc150/openStarNet_IEEE118_mod1_ByStages_nc150.log"
Set parameter Method to value 2
Set parameter MIPFocus to value 1
Set parameter Presolve to value 2
Set parameter RINS to value 100
Set parameter MIPGap to value 0.01
Set parameter Threads to value 24
Set parameter TimeLimit to value 259200
Set parameter IterationLimit to value 760000000
Gurobi Optimizer version 11.0.3 build v11.0.3rc0 (win64 - Windows Server 2019.0 (17763.2))

CPU model: AMD Ryzen Threadripper PRO 3955WX 16-Cores, instruction set [SSE2|AVX|AVX2]
Thread count: 16 physical cores, 32 logical processors, using up to 24 threads

Optimize a model with 213153 rows, 156518 columns and 526676 nonzeros
Model fingerprint: 0x7c3625e8
Coefficient statistics:
  Matrix range     [3e-04, 9e+03]
  Objective range  [1e+00, 1e+00]
  Bounds range     [1e-04, 3e+00]
  RHS range        [2e-04, 3e+02]
Presolve removed 158539 rows and 67720 columns
Presolve time: 0.63s
Presolved: 54614 rows, 88965 columns, 214667 nonzeros

Ordering time: 0.04s

Barrier statistics:
 AA' NZ     : 1.804e+05
 Factor NZ  : 7.256e+05 (roughly 60 MB of memory)
 Factor Ops : 1.066e+07 (less than 1 second per iteration)
 Threads    : 24

                  Objective                Residual
Iter       Primal          Dual         Primal    Dual     Compl     Time
   0   1.81815243e+07 -6.45146721e+08  1.12e+02 7.75e+01  1.53e+04     1s
   1   1.98260355e+06 -2.03715949e+08  1.07e+01 1.36e-12  1.94e+03     1s
   2   5.82035898e+05 -3.95430221e+07  2.34e+00 1.59e-12  3.30e+02     1s
   3   2.16256386e+05 -7.57044567e+06  8.40e-02 1.14e-12  4.26e+01     1s
   4   1.34913985e+05 -1.28848553e+06  6.82e-03 2.39e-12  7.37e+00     1s
   5   7.60446809e+04 -4.10022325e+05  2.80e-03 6.82e-13  2.51e+00     1s
   6   3.74106851e+04 -1.30386278e+05  1.08e-03 3.62e-13  8.64e-01     1s
   7   2.17098286e+04 -6.26210754e+04  5.36e-04 3.63e-13  4.34e-01     1s
   8   1.15326043e+04 -2.32779703e+04  2.30e-04 3.74e-13  1.79e-01     2s
   9   5.14867250e+03 -6.59830516e+03  6.27e-05 4.13e-13  6.05e-02     2s
  10   3.35838239e+03 -2.14174166e+03  3.06e-05 2.77e-13  2.83e-02     2s
  11   2.60483441e+03 -1.78275524e+01  1.83e-05 3.43e-13  1.35e-02     2s
  12   2.17136913e+03  5.48467161e+02  1.18e-05 2.58e-13  8.35e-03     2s
  13   1.89821817e+03  8.23273139e+02  7.84e-06 2.14e-13  5.53e-03     2s
  14   1.70522078e+03  1.02185157e+03  5.13e-06 2.14e-13  3.52e-03     2s
  15   1.59789956e+03  1.15074752e+03  3.65e-06 3.09e-13  2.30e-03     2s
  16   1.50030267e+03  1.21309438e+03  2.34e-06 2.40e-13  1.48e-03     2s
  17   1.44056734e+03  1.25653112e+03  1.55e-06 4.07e-13  9.47e-04     2s
  18   1.39247151e+03  1.28852541e+03  9.32e-07 2.10e-13  5.35e-04     2s
  19   1.37302964e+03  1.30031504e+03  6.78e-07 2.36e-13  3.74e-04     2s
  20   1.35209437e+03  1.31035267e+03  4.06e-07 2.84e-13  2.15e-04     2s
  21   1.33327015e+03  1.31671780e+03  1.66e-07 3.98e-13  8.52e-05     2s
  22   1.32363216e+03  1.31847939e+03  4.19e-08 2.48e-13  2.65e-05     2s
  23   1.32096589e+03  1.31930186e+03  1.11e-08 2.04e-13  8.56e-06     2s
  24   1.32049140e+03  1.31974680e+03  5.84e-09 2.67e-13  3.83e-06     2s
  25   1.32007339e+03  1.31988311e+03  1.24e-09 5.57e-13  9.79e-07     2s
  26   1.31996024e+03  1.31994328e+03  1.81e-10 4.52e-13  8.73e-08     2s
  27   1.31995569e+03  1.31995439e+03  5.81e-10 3.52e-13  6.74e-09     2s
  28   1.31995483e+03  1.31995478e+03  1.03e-09 2.88e-13  2.19e-10     2s
  29   1.31995479e+03  1.31995479e+03  2.05e-11 3.55e-13  1.88e-12     2s

Barrier solved model in 29 iterations and 2.09 seconds (1.07 work units)
Optimal objective 1.31995479e+03

Crossover log...

   15524 DPushes remaining with DInf 0.0000000e+00                 2s
       0 DPushes remaining with DInf 0.0000000e+00                 2s

     607 PPushes remaining with PInf 0.0000000e+00                 2s
       0 PPushes remaining with PInf 0.0000000e+00                 2s

  Push phase complete: Pinf 0.0000000e+00, Dinf 3.7774569e-12      2s

Iteration    Objective       Primal Inf.    Dual Inf.      Time
    5198    1.3199548e+03   0.000000e+00   0.000000e+00      3s

Solved in 5198 iterations and 2.57 seconds (1.34 work units)
Optimal objective  1.319954793e+03
